Minimize
	value: tt

Subject to
tt + 1000 s_1_1 > 0.0
tt - t_1_1 - 1000.000000 s_1_1  > -996.480167
tt + 1000 s_2_1 > 0.0
tt - t_2_1 - 1000.000000 s_2_1  > -987.810929
tt + 1000 s_1_2 > 0.0
tt - t_1_2 - 1002.309086 s_1_2  + 2.309086 s_1_7  > -996.897575
tt + 1000 s_2_2 > 0.0
tt - t_2_2 - 1002.080869 s_2_2  + 2.080869 s_2_7  > -988.540122
tt + 1000 s_1_3 > 0.0
tt - t_1_3 - 1002.309086 s_1_3  + 2.309086 s_1_7  > -997.267778
tt + 1000 s_2_3 > 0.0
tt - t_2_3 - 1002.080869 s_2_3  + 2.080869 s_2_7  > -985.616323
tt + 1000 s_1_4 > 0.0
tt - t_1_4 - 1003.701441 s_1_4  + 2.309086 s_1_7  + 1.392354 s_1_3  > -998.673444
tt + 1000 s_2_4 > 0.0
tt - t_2_4 - 1003.351615 s_2_4  + 2.080869 s_2_7  + 1.270746 s_2_3  > -991.518325
tt + 1000 s_1_5 > 0.0
tt - t_1_5 - 1002.309086 s_1_5  + 2.309086 s_1_7  > -997.154989
tt + 1000 s_2_5 > 0.0
tt - t_2_5 - 1002.080869 s_2_5  + 2.080869 s_2_7  > -989.736972
tt + 1000 s_1_6 > 0.0
tt - t_1_6 - 1006.961771 s_1_6  + 1.392354 s_1_5  + 1.392354 s_1_1  + 1.392354 s_1_3  + 1.392354 s_1_2  + 1.392354 s_1_4  > -998.913200
tt + 1000 s_2_6 > 0.0
tt - t_2_6 - 1006.353728 s_2_6  + 1.270746 s_2_5  + 1.270746 s_2_1  + 1.270746 s_2_3  + 1.270746 s_2_2  + 1.270746 s_2_4  > -993.833900
tt + 1000 s_1_7 > 0.0
tt - t_1_7 - 1000.000000 s_1_7  > -997.591522
tt + 1000 s_2_7 > 0.0
tt - t_2_7 - 1000.000000 s_2_7  > -994.575300
s_1_1 + s_2_1 = 1
s_1_2 + s_2_2 = 1
s_1_3 + s_2_3 = 1
s_1_4 + s_2_4 = 1
s_1_5 + s_2_5 = 1
s_1_6 + s_2_6 = 1
s_1_7 + s_2_7 = 1
s_1_1 + s_1_2 + 1000 r_1_1_2 >= 2
- s_1_1 - s_1_2 - 1000 r_1_1_2 >= -1001
t_1_1 - t_1_2 - 1000.000000 u_1_1_2 - 2.309086 s_1_2  + 2.309086 s_1_7  + 2000.000000 r_1_1_2 > -996.897575
s_2_1 + s_2_2 + 1000 r_2_1_2 >= 2
- s_2_1 - s_2_2 - 1000 r_2_1_2 >= -1001
t_2_1 - t_2_2 - 1000.000000 u_2_1_2 - 2.080869 s_2_2  + 2.080869 s_2_7  + 2000.000000 r_2_1_2 > -988.540122
s_1_1 + s_1_3 + 1000 r_1_1_3 >= 2
- s_1_1 - s_1_3 - 1000 r_1_1_3 >= -1001
t_1_1 - t_1_3 - 1000.000000 u_1_1_3 - 2.309086 s_1_3  + 2.309086 s_1_7  + 2000.000000 r_1_1_3 > -997.267778
s_2_1 + s_2_3 + 1000 r_2_1_3 >= 2
- s_2_1 - s_2_3 - 1000 r_2_1_3 >= -1001
t_2_1 - t_2_3 - 1000.000000 u_2_1_3 - 2.080869 s_2_3  + 2.080869 s_2_7  + 2000.000000 r_2_1_3 > -985.616323
s_1_1 + s_1_4 + 1000 r_1_1_4 >= 2
- s_1_1 - s_1_4 - 1000 r_1_1_4 >= -1001
t_1_1 - t_1_4 - 1000.000000 u_1_1_4 - 3.701441 s_1_4  + 2.309086 s_1_7  + 1.392354 s_1_3  + 2000.000000 r_1_1_4 > -998.673444
s_2_1 + s_2_4 + 1000 r_2_1_4 >= 2
- s_2_1 - s_2_4 - 1000 r_2_1_4 >= -1001
t_2_1 - t_2_4 - 1000.000000 u_2_1_4 - 3.351615 s_2_4  + 2.080869 s_2_7  + 1.270746 s_2_3  + 2000.000000 r_2_1_4 > -991.518325
s_1_1 + s_1_5 + 1000 r_1_1_5 >= 2
- s_1_1 - s_1_5 - 1000 r_1_1_5 >= -1001
t_1_1 - t_1_5 - 1000.000000 u_1_1_5 - 2.309086 s_1_5  + 2.309086 s_1_7  + 2000.000000 r_1_1_5 > -997.154989
s_2_1 + s_2_5 + 1000 r_2_1_5 >= 2
- s_2_1 - s_2_5 - 1000 r_2_1_5 >= -1001
t_2_1 - t_2_5 - 1000.000000 u_2_1_5 - 2.080869 s_2_5  + 2.080869 s_2_7  + 2000.000000 r_2_1_5 > -989.736972
t_1_6 - t_1_1 - 1000.000000 s_1_1  > -996.480167
t_1_6 - t_2_1 - 1000.000000 s_2_1  > -987.810929
t_2_6 - t_1_1 - 1000.000000 s_1_1  > -996.480167
t_2_6 - t_2_1 - 1000.000000 s_2_1  > -987.810929
s_1_1 + s_1_7 + 1000 r_1_1_7 >= 2
- s_1_1 - s_1_7 - 1000 r_1_1_7 >= -1001
t_1_1 - t_1_7 - 1000.000000 u_1_1_7 - 0.000000 s_1_7  + 2000.000000 r_1_1_7 > -997.591522
s_2_1 + s_2_7 + 1000 r_2_1_7 >= 2
- s_2_1 - s_2_7 - 1000 r_2_1_7 >= -1001
t_2_1 - t_2_7 - 1000.000000 u_2_1_7 - 0.000000 s_2_7  + 2000.000000 r_2_1_7 > -994.575300
s_1_2 + s_1_1 + 1000 r_1_1_2 >= 2
- s_1_2 - s_1_1 - 1000 r_1_1_2 >= -1001
t_1_2 - t_1_1 + 1000.000000 u_1_1_2 - 0.000000 s_1_1  + 2000.000000 r_1_1_2 > 3.519833
s_2_2 + s_2_1 + 1000 r_2_1_2 >= 2
- s_2_2 - s_2_1 - 1000 r_2_1_2 >= -1001
t_2_2 - t_2_1 + 1000.000000 u_2_1_2 - 0.000000 s_2_1  + 2000.000000 r_2_1_2 > 12.189071
s_1_2 + s_1_3 + 1000 r_1_2_3 >= 2
- s_1_2 - s_1_3 - 1000 r_1_2_3 >= -1001
t_1_2 - t_1_3 - 1000.000000 u_1_2_3 - 2.309086 s_1_3  + 2.309086 s_1_7  + 2000.000000 r_1_2_3 > -997.267778
s_2_2 + s_2_3 + 1000 r_2_2_3 >= 2
- s_2_2 - s_2_3 - 1000 r_2_2_3 >= -1001
t_2_2 - t_2_3 - 1000.000000 u_2_2_3 - 2.080869 s_2_3  + 2.080869 s_2_7  + 2000.000000 r_2_2_3 > -985.616323
s_1_2 + s_1_4 + 1000 r_1_2_4 >= 2
- s_1_2 - s_1_4 - 1000 r_1_2_4 >= -1001
t_1_2 - t_1_4 - 1000.000000 u_1_2_4 - 3.701441 s_1_4  + 2.309086 s_1_7  + 1.392354 s_1_3  + 2000.000000 r_1_2_4 > -998.673444
s_2_2 + s_2_4 + 1000 r_2_2_4 >= 2
- s_2_2 - s_2_4 - 1000 r_2_2_4 >= -1001
t_2_2 - t_2_4 - 1000.000000 u_2_2_4 - 3.351615 s_2_4  + 2.080869 s_2_7  + 1.270746 s_2_3  + 2000.000000 r_2_2_4 > -991.518325
s_1_2 + s_1_5 + 1000 r_1_2_5 >= 2
- s_1_2 - s_1_5 - 1000 r_1_2_5 >= -1001
t_1_2 - t_1_5 - 1000.000000 u_1_2_5 - 2.309086 s_1_5  + 2.309086 s_1_7  + 2000.000000 r_1_2_5 > -997.154989
s_2_2 + s_2_5 + 1000 r_2_2_5 >= 2
- s_2_2 - s_2_5 - 1000 r_2_2_5 >= -1001
t_2_2 - t_2_5 - 1000.000000 u_2_2_5 - 2.080869 s_2_5  + 2.080869 s_2_7  + 2000.000000 r_2_2_5 > -989.736972
t_1_6 - t_1_2 - 1002.309086 s_1_2  + 2.309086 s_1_7  > -996.897575
t_1_6 - t_2_2 - 1002.080869 s_2_2  + 2.080869 s_2_7  > -988.540122
t_2_6 - t_1_2 - 1002.309086 s_1_2  + 2.309086 s_1_7  > -996.897575
t_2_6 - t_2_2 - 1002.080869 s_2_2  + 2.080869 s_2_7  > -988.540122
t_1_2 - t_1_7 - 1000.000000 s_1_7  > -997.591522
t_1_2 - t_2_7 - 1000.000000 s_2_7  > -994.575300
t_2_2 - t_1_7 - 1000.000000 s_1_7  > -997.591522
t_2_2 - t_2_7 - 1000.000000 s_2_7  > -994.575300
s_1_3 + s_1_1 + 1000 r_1_1_3 >= 2
- s_1_3 - s_1_1 - 1000 r_1_1_3 >= -1001
t_1_3 - t_1_1 + 1000.000000 u_1_1_3 - 0.000000 s_1_1  + 2000.000000 r_1_1_3 > 3.519833
s_2_3 + s_2_1 + 1000 r_2_1_3 >= 2
- s_2_3 - s_2_1 - 1000 r_2_1_3 >= -1001
t_2_3 - t_2_1 + 1000.000000 u_2_1_3 - 0.000000 s_2_1  + 2000.000000 r_2_1_3 > 12.189071
s_1_3 + s_1_2 + 1000 r_1_2_3 >= 2
- s_1_3 - s_1_2 - 1000 r_1_2_3 >= -1001
t_1_3 - t_1_2 + 1000.000000 u_1_2_3 - 2.309086 s_1_2  + 2.309086 s_1_7  + 2000.000000 r_1_2_3 > 3.102425
s_2_3 + s_2_2 + 1000 r_2_2_3 >= 2
- s_2_3 - s_2_2 - 1000 r_2_2_3 >= -1001
t_2_3 - t_2_2 + 1000.000000 u_2_2_3 - 2.080869 s_2_2  + 2.080869 s_2_7  + 2000.000000 r_2_2_3 > 11.459878
t_1_4 - t_1_3 - 1002.309086 s_1_3  + 2.309086 s_1_7  > -997.267778
t_1_4 - t_2_3 - 1002.080869 s_2_3  + 2.080869 s_2_7  > -985.616323
t_2_4 - t_1_3 - 1002.309086 s_1_3  + 2.309086 s_1_7  > -997.267778
t_2_4 - t_2_3 - 1002.080869 s_2_3  + 2.080869 s_2_7  > -985.616323
s_1_3 + s_1_5 + 1000 r_1_3_5 >= 2
- s_1_3 - s_1_5 - 1000 r_1_3_5 >= -1001
t_1_3 - t_1_5 - 1000.000000 u_1_3_5 - 2.309086 s_1_5  + 2.309086 s_1_7  + 2000.000000 r_1_3_5 > -997.154989
s_2_3 + s_2_5 + 1000 r_2_3_5 >= 2
- s_2_3 - s_2_5 - 1000 r_2_3_5 >= -1001
t_2_3 - t_2_5 - 1000.000000 u_2_3_5 - 2.080869 s_2_5  + 2.080869 s_2_7  + 2000.000000 r_2_3_5 > -989.736972
t_1_6 - t_1_3 - 1002.309086 s_1_3  + 2.309086 s_1_7  > -997.267778
t_1_6 - t_2_3 - 1002.080869 s_2_3  + 2.080869 s_2_7  > -985.616323
t_2_6 - t_1_3 - 1002.309086 s_1_3  + 2.309086 s_1_7  > -997.267778
t_2_6 - t_2_3 - 1002.080869 s_2_3  + 2.080869 s_2_7  > -985.616323
t_1_3 - t_1_7 - 1000.000000 s_1_7  > -997.591522
t_1_3 - t_2_7 - 1000.000000 s_2_7  > -994.575300
t_2_3 - t_1_7 - 1000.000000 s_1_7  > -997.591522
t_2_3 - t_2_7 - 1000.000000 s_2_7  > -994.575300
s_1_4 + s_1_1 + 1000 r_1_1_4 >= 2
- s_1_4 - s_1_1 - 1000 r_1_1_4 >= -1001
t_1_4 - t_1_1 + 1000.000000 u_1_1_4 - 0.000000 s_1_1  + 2000.000000 r_1_1_4 > 3.519833
s_2_4 + s_2_1 + 1000 r_2_1_4 >= 2
- s_2_4 - s_2_1 - 1000 r_2_1_4 >= -1001
t_2_4 - t_2_1 + 1000.000000 u_2_1_4 - 0.000000 s_2_1  + 2000.000000 r_2_1_4 > 12.189071
s_1_4 + s_1_2 + 1000 r_1_2_4 >= 2
- s_1_4 - s_1_2 - 1000 r_1_2_4 >= -1001
t_1_4 - t_1_2 + 1000.000000 u_1_2_4 - 2.309086 s_1_2  + 2.309086 s_1_7  + 2000.000000 r_1_2_4 > 3.102425
s_2_4 + s_2_2 + 1000 r_2_2_4 >= 2
- s_2_4 - s_2_2 - 1000 r_2_2_4 >= -1001
t_2_4 - t_2_2 + 1000.000000 u_2_2_4 - 2.080869 s_2_2  + 2.080869 s_2_7  + 2000.000000 r_2_2_4 > 11.459878
s_1_4 + s_1_5 + 1000 r_1_4_5 >= 2
- s_1_4 - s_1_5 - 1000 r_1_4_5 >= -1001
t_1_4 - t_1_5 - 1000.000000 u_1_4_5 - 2.309086 s_1_5  + 2.309086 s_1_7  + 2000.000000 r_1_4_5 > -997.154989
s_2_4 + s_2_5 + 1000 r_2_4_5 >= 2
- s_2_4 - s_2_5 - 1000 r_2_4_5 >= -1001
t_2_4 - t_2_5 - 1000.000000 u_2_4_5 - 2.080869 s_2_5  + 2.080869 s_2_7  + 2000.000000 r_2_4_5 > -989.736972
t_1_6 - t_1_4 - 1003.701441 s_1_4  + 2.309086 s_1_7  + 1.392354 s_1_3  > -998.673444
t_1_6 - t_2_4 - 1003.351615 s_2_4  + 2.080869 s_2_7  + 1.270746 s_2_3  > -991.518325
t_2_6 - t_1_4 - 1003.701441 s_1_4  + 2.309086 s_1_7  + 1.392354 s_1_3  > -998.673444
t_2_6 - t_2_4 - 1003.351615 s_2_4  + 2.080869 s_2_7  + 1.270746 s_2_3  > -991.518325
t_1_4 - t_1_7 - 1000.000000 s_1_7  > -997.591522
t_1_4 - t_2_7 - 1000.000000 s_2_7  > -994.575300
t_2_4 - t_1_7 - 1000.000000 s_1_7  > -997.591522
t_2_4 - t_2_7 - 1000.000000 s_2_7  > -994.575300
s_1_5 + s_1_1 + 1000 r_1_1_5 >= 2
- s_1_5 - s_1_1 - 1000 r_1_1_5 >= -1001
t_1_5 - t_1_1 + 1000.000000 u_1_1_5 - 0.000000 s_1_1  + 2000.000000 r_1_1_5 > 3.519833
s_2_5 + s_2_1 + 1000 r_2_1_5 >= 2
- s_2_5 - s_2_1 - 1000 r_2_1_5 >= -1001
t_2_5 - t_2_1 + 1000.000000 u_2_1_5 - 0.000000 s_2_1  + 2000.000000 r_2_1_5 > 12.189071
s_1_5 + s_1_2 + 1000 r_1_2_5 >= 2
- s_1_5 - s_1_2 - 1000 r_1_2_5 >= -1001
t_1_5 - t_1_2 + 1000.000000 u_1_2_5 - 2.309086 s_1_2  + 2.309086 s_1_7  + 2000.000000 r_1_2_5 > 3.102425
s_2_5 + s_2_2 + 1000 r_2_2_5 >= 2
- s_2_5 - s_2_2 - 1000 r_2_2_5 >= -1001
t_2_5 - t_2_2 + 1000.000000 u_2_2_5 - 2.080869 s_2_2  + 2.080869 s_2_7  + 2000.000000 r_2_2_5 > 11.459878
s_1_5 + s_1_3 + 1000 r_1_3_5 >= 2
- s_1_5 - s_1_3 - 1000 r_1_3_5 >= -1001
t_1_5 - t_1_3 + 1000.000000 u_1_3_5 - 2.309086 s_1_3  + 2.309086 s_1_7  + 2000.000000 r_1_3_5 > 2.732222
s_2_5 + s_2_3 + 1000 r_2_3_5 >= 2
- s_2_5 - s_2_3 - 1000 r_2_3_5 >= -1001
t_2_5 - t_2_3 + 1000.000000 u_2_3_5 - 2.080869 s_2_3  + 2.080869 s_2_7  + 2000.000000 r_2_3_5 > 14.383677
s_1_5 + s_1_4 + 1000 r_1_4_5 >= 2
- s_1_5 - s_1_4 - 1000 r_1_4_5 >= -1001
t_1_5 - t_1_4 + 1000.000000 u_1_4_5 - 3.701441 s_1_4  + 2.309086 s_1_7  + 1.392354 s_1_3  + 2000.000000 r_1_4_5 > 1.326556
s_2_5 + s_2_4 + 1000 r_2_4_5 >= 2
- s_2_5 - s_2_4 - 1000 r_2_4_5 >= -1001
t_2_5 - t_2_4 + 1000.000000 u_2_4_5 - 3.351615 s_2_4  + 2.080869 s_2_7  + 1.270746 s_2_3  + 2000.000000 r_2_4_5 > 8.481675
t_1_6 - t_1_5 - 1002.309086 s_1_5  + 2.309086 s_1_7  > -997.154989
t_1_6 - t_2_5 - 1002.080869 s_2_5  + 2.080869 s_2_7  > -989.736972
t_2_6 - t_1_5 - 1002.309086 s_1_5  + 2.309086 s_1_7  > -997.154989
t_2_6 - t_2_5 - 1002.080869 s_2_5  + 2.080869 s_2_7  > -989.736972
t_1_5 - t_1_7 - 1000.000000 s_1_7  > -997.591522
t_1_5 - t_2_7 - 1000.000000 s_2_7  > -994.575300
t_2_5 - t_1_7 - 1000.000000 s_1_7  > -997.591522
t_2_5 - t_2_7 - 1000.000000 s_2_7  > -994.575300
s_1_7 + s_1_1 + 1000 r_1_1_7 >= 2
- s_1_7 - s_1_1 - 1000 r_1_1_7 >= -1001
t_1_7 - t_1_1 + 1000.000000 u_1_1_7 - 0.000000 s_1_1  + 2000.000000 r_1_1_7 > 3.519833
s_2_7 + s_2_1 + 1000 r_2_1_7 >= 2
- s_2_7 - s_2_1 - 1000 r_2_1_7 >= -1001
t_2_7 - t_2_1 + 1000.000000 u_2_1_7 - 0.000000 s_2_1  + 2000.000000 r_2_1_7 > 12.189071
Binary
s_1_1
s_2_1
s_1_2
s_2_2
s_1_3
s_2_3
s_1_4
s_2_4
s_1_5
s_2_5
s_1_6
s_2_6
s_1_7
s_2_7
u_1_1_2
r_1_1_2
u_2_1_2
r_2_1_2
u_1_1_3
r_1_1_3
u_2_1_3
r_2_1_3
u_1_1_4
r_1_1_4
u_2_1_4
r_2_1_4
u_1_1_5
r_1_1_5
u_2_1_5
r_2_1_5
u_1_1_7
r_1_1_7
u_2_1_7
r_2_1_7
u_1_2_3
r_1_2_3
u_2_2_3
r_2_2_3
u_1_2_4
r_1_2_4
u_2_2_4
r_2_2_4
u_1_2_5
r_1_2_5
u_2_2_5
r_2_2_5
u_1_3_5
r_1_3_5
u_2_3_5
r_2_3_5
u_1_4_5
r_1_4_5
u_2_4_5
r_2_4_5

End
